1 40 50
2 45 68
3 45 70
4 42 66
5 42 68
6 42 65
7 40 69
8 40 66
9 38 68
10 38 70
11 35 66
12 35 69
13 25 85
14 22 75
15 22 85
16 20 80
17 20 85
18 18 75
19 15 75
20 15 80
21 30 50
22 30 52
23 28 52
24 28 55
25 25 50
26 25 52
